problems/csplib-prob015/SchursLemma-models/noch/O2/lingeling/model_1_4-5-18-solution000001.eprime-solution
language ESSENCE' 1.0

letting boxes_PartitionOccurrence_FirstIndex be [1, 3, 4, 17, 18; int(1..5)]
letting boxes_PartitionOccurrence_NumParts be 5
letting boxes_PartitionOccurrence_PartSizes be [4, 6, 6, 1, 1; int(1..5)]
letting boxes_PartitionOccurrence_WhichPart be [1, 1, 2, 3, 2, 2, 1, 3, 3, 3, 1, 2, 2, 2, 3, 3, 4, 5; int(1..18)]
