problems/csplib-prob015/SchursLemma-models/noch/O2/lingeling/model_1_4-5-18-solution000001.solution
language Essence 1.3

letting boxes be partition({1, 2, 7, 11}, {3, 5, 6, 12, 13, 14}, {4, 8, 9, 10, 15, 16}, {17}, {18})
